\ENCODING=ISO-8859-1
\Problem name: ilog.cplex

Minimize
 obj: x1 + x2 + x3 + x4 + x5 + x6 + x7 + x8 + x9 + x10 + x11 + x12 + x13 + x14
      + x15 + x16
Subject To
 c1:  x1 + x33 + x34 + x35 + x36 + x37 + x38 + x39 + x40 + x41 + x42 + x43
      + x44 + x45 + x46 + x47 + x48 + x49 + x50 + x51 + x52 + x53 + x54 + x55
      + x56 + x57 + x58 + x59 + x60 + x61 + x62 + x63 + x64 + x65 + x66 + x67
      + x68 + x69 + x70 + x71 + x72 + x73 + x74 + x75 + x76 + x77 + x78 + x79
      + x80 + x81 + x82 + x83 + x84 + x85 + x86 + x87 + x88 + x89 + x90 + x91
      + x92 + x93 + x94 + x95 + x96 + x97 + x98 + x99 + x100 + x101 + x102
      + x103 + x104 + x105 + x106 + x107 + x108 + x109 + x110 + x111 + x112
      + x113 + x114 + x115 + x116 + x117 + x118 + x119 + x120 + x121 + x122
      + x123 + x124 + x125 + x126 + x127 + x128 + x129 + x130 + x131 + x132
      + x133 + x134 + x135 + x136 + x137 + x138 + x139 + x140 + x141 + x142
      + x143 + x144 + x145 + x146 + x147 + x148 + x149 + x150 + x151 + x152
      + x153 + x154 + x155 + x156 + x157 + x158 + x159 + x160 + x161 + x162
      + x163 + x164 + x165 + x166 + x167 + x168 + x169 + x170 + x171 + x172
      + x173 + x174 + x175 + x176 + x177 + x178 + x179 + x180 + x181 + x182
      + x183 + x184 + x185 + x186 + x187 + x188 + x189 + x190 + x191 + x192
      + x193 + x194 + x195 + x196 + x197 + x198 + x199 + x200 + x201 + x202
      + x203 + x204 + x205 + x206 + x207 + x208 + x209 + x210 + x211 + x212
      + x213 + x214 + x215 + x216 + x217 + x218 + x219 + x220 + x221 + x222
      + x223 + x224 + x225 + x226 + x227 + x228 + x229 + x230 + x231 + x232
      + x233 + x234 + x235 + x236 + x237 + x238 + x239 + x240 + x241 + x242
      + x243 + x244 + x245 + x246 + x247 + x248 + x249 + x250 + x251 + x252
      + x253 + x254 + x255 + x256 + x257 + x258 + x259 + x260 + x261 + x262
      + x263 + x264 + x265 + x266 + x267 + x268 + x269 + x270 + x271 + x272
      + x273 + x274 + x275 + x276 + x277 + x278 + x279 + x280 + x281 + x282
      + x283 + x284 + x285 + x286 + x287 + x288 + x289 + x290 + x291 + x292
      + x293 + x294 + x295 + x296 + x297 + x298 + x299 + x300 + x301 + x302
      + x303 + x304 + x305 + x306 + x307 + x308 + x309 + x310 + x311 + x312
      + x313 + x314 + x315 + x316 + x317 + x318 + x319 + x320 + x321 + x322
      + x323 + x324 + x325 + x326 + x327 + x328 + x329 + x330 + x331 + x332
      + x333 + x334 + x335 + x336 + x337 + x338 + x339 + x340 + x341 + x342
      + x343 + x344 + x345 + x346 + x347 + x348 + x349 + x350 + x351 + x352
      + x353 + x354 + x355 + x356 + x357 + x358 + x359 + x360 + x361 + x362
      + x363 + x364 + x365 + x366 + x367 + x368 + x369 + x370 + x371 + x372
      + x373 + x374 + x375 + x376 + x377 + x378 + x379 + x380 + x381 + x382
      + x383 + x384 + x385 + x386 + x387 + x388 + x389 + x390 + x391 + x392
      + x393 + x394 + x395 + x396 + x397 + x398 + x399 + x400 + x401 + x402
      + x403 + x404 + x405 + x406 + x407 + x408 + x409 + x410 + x411 + x412
      + x413 + x414 + x415 + x416 + x417 + x418 + x419 + x420 + x421 + x422
      + x423 + x424 + x425 + x426 + x427 + x428 + x429 + x430 + x431 + x432
      + x433 + x434 + x435 + x436 + x437 + x438 + x439 + x440 + x441 + x442
      + x443 + x444 + x445 + x446 + x447 + x448 + x449 + x450 + x451 + x452
      + x453 + x454 + x455 + x456 + x457 + x458 + x459 + x460 + x461 + x462
      + x463 + x464 + x465 + x466 + x467 + x468 + x469 + x470 + x471 + x472
      + x473 + x474 + x475 + x476 + x477 + x478 + x479 + x480  = 1
 c3:  x2 + x33 + x34 + x35 + x36 + x37 + x38 + x39 + x40 + x41 + x42 + x43
      + x44 + x45 + x46 + x47 + x48 + x49 + x50 + x51 + x53 + x54 + x55 + x56
      + x57 + x58 + x59 + x60 + x61 + x62 + x63 + x64 + x65 + x66 + x67 + x68
      + x69 + x70 + x72 + x73 + x75 + x76 + x78 + x79 + x80 + x81 + x82 + x83
      + x84 + x85 + x86 + x87 + x88 + x89 + x90 + x91 + x92 + x93 + x94 + x95
      + x96 + x97 + x98 + x99 + x100 + x101 + x102 + x103 + x105 + x106 + x107
      + x108 + x109 + x110 + x111 + x112 + x113 + x114 + x115 + x117 + x118
      + x119 + x120 + x121 + x122 + x123 + x124 + x125 + x126 + x127 + x128
      + x130 + x131 + x132 + x133 + x134 + x135 + x136 + x137 + x138 + x139
      + x141 + x142 + x143 + x144 + x145 + x146 + x147 + x148 + x149 + x151
      + x152 + x153 + x154 + x155 + x156 + x157 + x158 + x159 + x160 + x161
      + x163 + x165 + x166 + x167 + x168 + x169 + x170 + x171 + x172 + x173
      + x175 + x176 + x177 + x178 + x179 + x180 + x181 + x182 + x183 + x184
      + x185 + x186 + x187 + x188 + x189 + x190 + x191 + x192 + x193 + x194
      + x195 + x196 + x197 + x198 + x199 + x201 + x202 + x203 + x204 + x205
      + x206 + x207 + x208 + x209 + x211 + x212 + x213 + x215 + x216 + x217
      + x218 + x219 + x220 + x221 + x222 + x223 + x225 + x226 + x227 + x228
      + x229 + x230 + x231 + x232 + x233 + x237 + x238 + x239 + x240 + x241
      + x242 + x243 + x244 + x245 + x246 + x247 + x248 + x249 + x250 + x251
      + x252 + x253 + x254 + x255 + x256 + x257 + x259 + x260 + x261 + x262
      + x263 + x264 + x265 + x266 + x267 + x268 + x269 + x270 + x271 + x272
      + x273 + x274 + x275 + x276 + x277 + x278 + x279 + x280 + x281 + x282
      + x283 + x284 + x285 + x286 + x287 + x288 + x289 + x290 + x291 + x292
      + x293 + x294 + x295 + x296 + x297 + x298 + x299 + x300 + x302 + x303
      + x304 + x305 + x306 + x307 + x308 + x309 + x310 + x311 + x312 + x313
      + x315 + x316 + x317 + x318 + x319 + x321 + x322 + x323 + x324 + x325
      + x326 + x327 + x328 + x329 + x330 + x331 + x333 + x334 + x335 + x336
      + x337 + x338 + x339 + x340 + x341 + x342 + x343 + x344 + x345 + x346
      + x347 + x348 + x349 + x350 + x352 + x353 + x354 + x355 + x356 + x357
      + x358 + x359 + x360 + x361 + x362 + x363 + x364 + x365 + x366 + x367
      + x368 + x369 + x370 + x371 + x372 + x373 + x374 + x375 + x376 + x377
      + x378 + x380 + x381 + x382 + x383 + x384 + x385 + x386 + x387 + x388
      + x389 + x390 + x391 + x392 + x393 + x394 + x395 + x396 + x397 + x398
      + x399 + x400 + x401 + x402 + x403 + x404 + x405 + x406 + x407 + x408
      + x409 + x410 + x411 + x412 + x413 + x414 + x415 + x416 + x417 + x418
      + x419 + x420 + x421 + x422 + x424 + x425 + x426 + x429 + x430 + x431
      + x432 + x433 + x435 + x436 + x437 + x438 + x439 + x440 + x441 + x442
      + x443 + x444 + x446 + x447 + x448 + x449 + x451 + x452 + x453 + x455
      + x456 + x457 + x458 + x459 + x461 + x463 + x464 + x466 + x469 + x470
      + x471 + x472 + x473 + x474 + x475 + x477 + x478 + x929 + x930 + x931
      + x932 + x933 + x934 + x935 + x936 + x937 + x938 + x939 + x940 + x941
      + x942 + x943 + x944  = 1
 c5:  x3 + x43 + x59 + x64 + x67 + x70 + x82 + x105 + x107 + x108 + x115 + x120
      + x121 + x126 + x132 + x145 + x148 + x151 + x164 + x175 + x197 + x218
      + x235 + x236 + x241 + x278 + x286 + x289 + x297 + x298 + x301 + x312
      + x325 + x330 + x332 + x333 + x341 + x356 + x377 + x387 + x390 + x391
      + x406 + x410 + x414 + x428 + x434 + x442 + x446 + x471 + x936 + x941
      + x945 + x946 + x947 + x948  = 1
 c7:  x4 + x39 + x62 + x67 + x79 + x83 + x85 + x93 + x110 + x115 + x117 + x127
      + x130 + x134 + x139 + x149 + x151 + x155 + x166 + x184 + x186 + x188
      + x190 + x200 + x210 + x213 + x215 + x220 + x221 + x224 + x231 + x239
      + x245 + x247 + x259 + x274 + x294 + x305 + x343 + x352 + x353 + x356
      + x369 + x372 + x376 + x411 + x415 + x423 + x424 + x427 + x428 + x431
      + x436 + x444 + x450 + x935 + x953 + x954 + x955 + x956 + x957 + x958
      + x959  = 1
 c9:  x5 + x33 + x34 + x36 + x37 + x38 + x40 + x41 + x42 + x44 + x46 + x47
      + x48 + x49 + x50 + x52 + x53 + x58 + x62 + x63 + x65 + x66 + x69 + x71
      + x72 + x74 + x75 + x77 + x78 + x80 + x81 + x84 + x87 + x88 + x89 + x92
      + x95 + x96 + x98 + x99 + x100 + x101 + x102 + x103 + x104 + x105 + x106
      + x108 + x111 + x112 + x113 + x114 + x116 + x121 + x124 + x125 + x128
      + x129 + x131 + x132 + x133 + x135 + x136 + x138 + x140 + x142 + x144
      + x147 + x150 + x153 + x155 + x156 + x157 + x158 + x159 + x160 + x162
      + x163 + x164 + x166 + x167 + x168 + x170 + x174 + x177 + x178 + x180
      + x185 + x191 + x194 + x195 + x196 + x201 + x202 + x203 + x204 + x206
      + x207 + x208 + x209 + x210 + x211 + x212 + x213 + x214 + x219 + x222
      + x223 + x224 + x225 + x226 + x227 + x228 + x229 + x230 + x234 + x235
      + x236 + x238 + x240 + x242 + x243 + x246 + x249 + x250 + x251 + x252
      + x256 + x261 + x268 + x270 + x272 + x273 + x275 + x276 + x277 + x279
      + x280 + x283 + x284 + x285 + x286 + x287 + x288 + x290 + x297 + x298
      + x301 + x302 + x303 + x306 + x307 + x309 + x320 + x321 + x322 + x323
      + x324 + x326 + x328 + x335 + x336 + x337 + x338 + x340 + x345 + x349
      + x350 + x351 + x355 + x361 + x364 + x366 + x370 + x374 + x381 + x382
      + x383 + x384 + x386 + x387 + x388 + x392 + x401 + x404 + x405 + x408
      + x409 + x413 + x414 + x415 + x417 + x420 + x421 + x430 + x434 + x437
      + x439 + x441 + x443 + x447 + x462 + x932 + x957 + x967 + x968 + x969
      + x970 + x971  = 1
 c11: x6 + x33 + x34 + x38 + x40 + x41 + x42 + x44 + x45 + x46 + x47 + x48
      + x49 + x52 + x53 + x57 + x60 + x61 + x62 + x63 + x65 + x66 + x69 + x71
      + x72 + x73 + x74 + x77 + x78 + x79 + x80 + x81 + x84 + x86 + x87 + x88
      + x90 + x91 + x92 + x95 + x98 + x99 + x100 + x101 + x102 + x103 + x104
      + x105 + x106 + x107 + x108 + x111 + x112 + x113 + x114 + x116 + x119
      + x120 + x121 + x125 + x126 + x129 + x131 + x132 + x133 + x134 + x135
      + x136 + x138 + x142 + x144 + x145 + x146 + x147 + x150 + x153 + x154
      + x155 + x156 + x157 + x158 + x159 + x160 + x161 + x162 + x163 + x164
      + x166 + x167 + x168 + x170 + x172 + x173 + x174 + x176 + x178 + x180
      + x181 + x187 + x189 + x191 + x192 + x194 + x195 + x196 + x198 + x199
      + x201 + x202 + x203 + x204 + x206 + x207 + x208 + x209 + x212 + x214
      + x219 + x222 + x225 + x227 + x228 + x230 + x232 + x234 + x235 + x236
      + x238 + x240 + x241 + x242 + x243 + x244 + x246 + x249 + x250 + x251
      + x252 + x254 + x256 + x260 + x261 + x262 + x266 + x267 + x268 + x270
      + x271 + x273 + x275 + x277 + x278 + x279 + x280 + x281 + x282 + x283
      + x284 + x285 + x286 + x287 + x288 + x289 + x290 + x292 + x296 + x298
      + x301 + x302 + x303 + x305 + x306 + x307 + x308 + x309 + x312 + x314
      + x315 + x319 + x320 + x322 + x323 + x324 + x325 + x326 + x327 + x328
      + x331 + x333 + x334 + x335 + x336 + x338 + x340 + x341 + x344 + x346
      + x350 + x351 + x353 + x355 + x359 + x360 + x361 + x364 + x366 + x370
      + x371 + x373 + x375 + x378 + x379 + x381 + x382 + x383 + x385 + x386
      + x387 + x388 + x389 + x390 + x392 + x393 + x395 + x401 + x403 + x405
      + x409 + x410 + x412 + x413 + x414 + x415 + x416 + x417 + x420 + x421
      + x424 + x430 + x432 + x434 + x437 + x439 + x440 + x441 + x443 + x445
      + x447 + x449 + x451 + x457 + x462 + x473 + x939 + x953 + x954 + x969
      + x970 + x977 + x978 + x979  = 1
 c13: x7 + x33 + x34 + x35 + x36 + x44 + x46 + x47 + x49 + x52 + x53 + x56
      + x58 + x59 + x62 + x63 + x64 + x65 + x68 + x71 + x72 + x74 + x76 + x77
      + x78 + x81 + x86 + x92 + x93 + x95 + x96 + x98 + x100 + x103 + x105
      + x110 + x112 + x114 + x116 + x117 + x123 + x124 + x127 + x131 + x133
      + x137 + x139 + x142 + x143 + x144 + x152 + x155 + x157 + x159 + x162
      + x170 + x172 + x181 + x183 + x184 + x185 + x188 + x189 + x194 + x195
      + x196 + x197 + x198 + x201 + x202 + x203 + x207 + x209 + x211 + x214
      + x215 + x216 + x219 + x220 + x223 + x228 + x229 + x233 + x238 + x246
      + x247 + x248 + x249 + x263 + x266 + x272 + x274 + x275 + x276 + x277
      + x282 + x284 + x287 + x290 + x295 + x296 + x303 + x310 + x319 + x323
      + x326 + x329 + x331 + x338 + x340 + x343 + x347 + x351 + x354 + x356
      + x362 + x370 + x374 + x375 + x378 + x386 + x393 + x394 + x400 + x401
      + x403 + x405 + x407 + x409 + x413 + x419 + x420 + x422 + x429 + x430
      + x433 + x435 + x437 + x439 + x441 + x442 + x443 + x447 + x448 + x455
      + x458 + x468 + x469 + x938 + x943 + x947 + x957  = 1
 c15: x8 + x41 + x53 + x63 + x74 + x77 + x80 + x85 + x87 + x91 + x94 + x98
      + x100 + x103 + x109 + x111 + x114 + x116 + x118 + x120 + x126 + x140
      + x142 + x146 + x147 + x154 + x161 + x169 + x170 + x178 + x179 + x182
      + x186 + x189 + x193 + x194 + x204 + x205 + x210 + x227 + x228 + x231
      + x236 + x243 + x248 + x249 + x254 + x256 + x266 + x277 + x284 + x297
      + x301 + x303 + x304 + x309 + x322 + x325 + x326 + x335 + x337 + x340
      + x341 + x346 + x350 + x351 + x376 + x386 + x390 + x397 + x399 + x402
      + x405 + x406 + x426 + x446 + x449 + x454 + x464 + x477 + x479 + x936
      + x945 + x968 + x983 + x984  = 1
 c17: x9 + x51 + x52 + x65 + x68 + x76 + x101 + x104 + x107 + x119 + x122
      + x125 + x129 + x131 + x137 + x146 + x148 + x157 + x165 + x192 + x206
      + x217 + x226 + x230 + x250 + x251 + x255 + x258 + x265 + x274 + x278
      + x280 + x281 + x289 + x299 + x306 + x311 + x321 + x331 + x338 + x348
      + x370 + x372 + x395 + x396 + x410 + x417 + x421 + x440 + x465 + x937
      + x956 + x967 + x987 + x988 + x989 + x990 + x991 + x992 + x993  = 1
 c19: x10 + x41 + x43 + x44 + x51 + x58 + x60 + x70 + x73 + x78 + x87 + x88
      + x91 + x97 + x122 + x127 + x136 + x141 + x154 + x160 + x163 + x164
      + x168 + x171 + x177 + x182 + x190 + x202 + x214 + x222 + x233 + x241
      + x244 + x258 + x269 + x271 + x275 + x282 + x290 + x291 + x292 + x293
      + x300 + x304 + x306 + x311 + x319 + x332 + x355 + x358 + x362 + x365
      + x369 + x380 + x381 + x385 + x389 + x392 + x396 + x400 + x404 + x435
      + x442 + x463 + x467 + x480 + x929 + x931 + x935 + x967 + x990 + x991
      + x1001 + x1002 + x1003  = 1
 c21: x11 + x34 + x36 + x43 + x50 + x58 + x59 + x64 + x67 + x72 + x96 + x102
      + x108 + x117 + x124 + x129 + x133 + x137 + x138 + x144 + x149 + x151
      + x163 + x165 + x166 + x173 + x174 + x182 + x184 + x185 + x187 + x195
      + x197 + x198 + x201 + x203 + x207 + x208 + x220 + x224 + x232 + x235
      + x238 + x240 + x270 + x272 + x273 + x286 + x287 + x292 + x297 + x302
      + x313 + x316 + x333 + x339 + x342 + x349 + x354 + x357 + x360 + x368
      + x385 + x412 + x423 + x430 + x441 + x448 + x452 + x459 + x474 + x937
      + x946 + x953 + x977  = 1
 c23: x12 + x33 + x45 + x46 + x47 + x48 + x49 + x51 + x54 + x55 + x56 + x59
      + x60 + x61 + x69 + x71 + x72 + x73 + x75 + x80 + x82 + x84 + x88 + x90
      + x99 + x102 + x104 + x105 + x106 + x108 + x109 + x110 + x111 + x118
      + x121 + x122 + x123 + x124 + x125 + x132 + x133 + x135 + x136 + x144
      + x147 + x150 + x153 + x156 + x158 + x159 + x160 + x168 + x174 + x178
      + x186 + x187 + x195 + x197 + x198 + x200 + x201 + x206 + x207 + x211
      + x215 + x219 + x221 + x222 + x227 + x229 + x230 + x232 + x233 + x234
      + x238 + x239 + x240 + x243 + x246 + x248 + x250 + x251 + x253 + x260
      + x262 + x272 + x273 + x276 + x279 + x280 + x283 + x285 + x286 + x287
      + x291 + x293 + x295 + x298 + x304 + x307 + x308 + x309 + x310 + x313
      + x317 + x323 + x324 + x332 + x334 + x335 + x336 + x337 + x339 + x342
      + x344 + x346 + x347 + x348 + x350 + x352 + x353 + x354 + x355 + x358
      + x359 + x361 + x364 + x366 + x367 + x368 + x374 + x377 + x381 + x383
      + x389 + x391 + x392 + x393 + x394 + x397 + x398 + x399 + x403 + x404
      + x406 + x409 + x411 + x413 + x414 + x415 + x417 + x418 + x419 + x421
      + x422 + x425 + x426 + x443 + x444 + x452 + x455 + x456 + x461 + x470
      + x472 + x475 + x932 + x934 + x945 + x954 + x977 + x1007  = 1
 c25: x13 + x35 + x40 + x56 + x57 + x64 + x69 + x75 + x81 + x89 + x135 + x143
      + x145 + x150 + x172 + x173 + x175 + x176 + x179 + x180 + x181 + x192
      + x200 + x210 + x211 + x216 + x218 + x234 + x244 + x254 + x255 + x256
      + x257 + x259 + x263 + x267 + x268 + x296 + x302 + x307 + x310 + x334
      + x345 + x359 + x362 + x363 + x364 + x365 + x371 + x383 + x384 + x387
      + x398 + x400 + x408 + x423 + x438 + x466 + x476 + x930 + x932 + x933
      + x940 + x944 + x1009  = 1
 c27: x14 + x35 + x37 + x39 + x45 + x50 + x54 + x61 + x84 + x96 + x128 + x140
      + x152 + x156 + x185 + x199 + x205 + x212 + x213 + x216 + x217 + x218
      + x226 + x237 + x252 + x253 + x261 + x263 + x264 + x279 + x283 + x294
      + x295 + x308 + x314 + x327 + x329 + x339 + x345 + x347 + x367 + x368
      + x373 + x380 + x384 + x394 + x402 + x408 + x418 + x427 + x432 + x433
      + x445 + x453 + x460 + x929 + x931 + x933 + x955 + x989 + x1007 + x1011
       = 1
 c29: x15 + x40 + x48 + x50 + x56 + x57 + x70 + x83 + x99 + x101 + x113 + x115
      + x138 + x141 + x143 + x148 + x152 + x153 + x158 + x161 + x167 + x180
      + x183 + x191 + x209 + x223 + x225 + x245 + x246 + x255 + x258 + x262
      + x271 + x281 + x285 + x288 + x293 + x310 + x311 + x312 + x318 + x336
      + x354 + x360 + x361 + x365 + x366 + x371 + x375 + x377 + x391 + x395
      + x399 + x401 + x412 + x419 + x420 + x431 + x434 + x435 + x436 + x439
      + x444 + x458 + x459 + x468 + x469 + x470 + x471 + x478 + x938 + x942
      + x946 + x971 + x1013  = 1
 c31: x16 + x36 + x37 + x38 + x42 + x55 + x66 + x82 + x89 + x94 + x97 + x123
      + x128 + x130 + x169 + x171 + x177 + x183 + x193 + x223 + x237 + x242
      + x257 + x265 + x269 + x276 + x299 + x300 + x315 + x316 + x317 + x318
      + x320 + x328 + x330 + x349 + x357 + x363 + x379 + x382 + x388 + x407
      + x416 + x425 + x429 + x438 + x930 + x934 + x987 + x988 + x1001 + x1013
       = 1
 c33: x33 + x34 + x35 + x36 + x37 + x38 + x39 + x40 + x41 + x42 + x43 + x44
      + x45 + x46 + x47 + x48 + x49 + x50 + x51 + x52 + x53 + x54 + x55 + x56
      + x57 + x58 + x59 + x60 + x61 + x62 + x63 + x64 + x65 + x66 + x67 + x68
      + x69 + x70 + x71 + x72 + x73 + x74 + x75 + x76 + x77 + x78 + x79 + x80
      + x81 + x82 + x83 + x84 + x85 + x86 + x87 + x88 + x89 + x90 + x91 + x92
      + x93 + x94 + x95 + x96 + x97 + x98 + x99 + x100 + x101 + x102 + x103
      + x104 + x105 + x106 + x107 + x108 + x109 + x110 + x111 + x112 + x113
      + x114 + x115 + x116 + x117 + x118 + x119 + x120 + x121 + x122 + x123
      + x124 + x125 + x126 + x127 + x128 + x129 + x130 + x131 + x132 + x133
      + x134 + x135 + x136 + x137 + x138 + x139 + x140 + x141 + x142 + x143
      + x144 + x145 + x146 + x147 + x148 + x149 + x150 + x151 + x152 + x153
      + x154 + x155 + x156 + x157 + x158 + x159 + x160 + x161 + x162 + x163
      + x164 + x165 + x166 + x167 + x168 + x169 + x170 + x171 + x172 + x173
      + x174 + x175 + x176 + x177 + x178 + x179 + x180 + x181 + x182 + x183
      + x184 + x185 + x186 + x187 + x188 + x189 + x190 + x191 + x192 + x193
      + x194 + x195 + x196 + x197 + x198 + x199 + x200 + x201 + x202 + x203
      + x204 + x205 + x206 + x207 + x208 + x209 + x210 + x211 + x212 + x213
      + x214 + x215 + x216 + x217 + x218 + x219 + x220 + x221 + x222 + x223
      + x224 + x225 + x226 + x227 + x228 + x229 + x230 + x231 + x232 + x233
      + x234 + x235 + x236 + x237 + x238 + x239 + x240 + x241 + x242 + x243
      + x244 + x245 + x246 + x247 + x248 + x249 + x250 + x251 + x252 + x253
      + x254 + x255 + x256 + x257 + x258 + x259 + x260 + x261 + x262 + x263
      + x264 + x265 + x266 + x267 + x268 + x269 + x270 + x271 + x272 + x273
      + x274 + x275 + x276 + x277 + x278 + x279 + x280 + x281 + x282 + x283
      + x284 + x285 + x286 + x287 + x288 + x289 + x290 + x291 + x292 + x293
      + x294 + x295 + x296 + x297 + x298 + x299 + x300 + x301 + x302 + x303
      + x304 + x305 + x306 + x307 + x308 + x309 + x310 + x311 + x929 + x930
      + x931 + x932 + x953 + x967 <= 1
 c35: x312 + x313 + x314 + x315 + x316 + x317 + x318 + x319 + x320 + x321
      + x322 + x323 + x324 + x325 + x326 + x327 + x328 + x329 + x330 + x331
      + x332 + x333 + x334 + x335 + x336 + x337 + x338 + x339 + x340 + x341
      + x342 + x343 + x344 + x345 + x346 + x347 + x348 + x349 + x350 + x351
      + x352 + x353 + x354 + x355 + x356 + x357 + x358 + x359 + x360 + x361
      + x362 + x363 + x364 + x365 + x366 + x367 + x368 + x369 + x370 + x371
      + x372 + x373 + x374 + x375 + x376 + x377 + x378 + x379 + x380 + x381
      + x382 + x383 + x384 + x385 + x386 + x387 + x388 + x389 + x390 + x391
      + x392 + x393 + x394 + x395 + x396 + x397 + x398 + x399 + x400 + x401
      + x402 + x403 + x404 + x405 + x406 + x407 + x408 + x409 + x410 + x411
      + x412 + x413 + x414 + x415 + x416 + x417 + x418 + x419 + x420 + x421
      + x422 + x423 + x424 + x425 + x426 + x427 + x933 + x934 + x935 + x954
      + x955 + x977 + x987 + x988 + x989 + x1001 <= 1
 c37: x428 + x429 + x430 + x431 + x432 + x433 + x434 + x435 + x436 + x437
      + x438 + x439 + x440 + x441 + x442 + x443 + x444 + x445 + x945 + x946
      + x956 + x990 + x1013 <= 1
 c39: x446 + x447 + x448 + x449 + x936 + x937 + x957 + x991 + x1007 <= 1
 c41: x450 + x451 + x452 + x453 + x454 + x455 + x456 + x457 + x458 + x459
      + x460 + x461 + x462 + x463 + x464 + x465 + x466 + x467 + x468 + x469
      + x470 + x471 + x938 + x939 + x940 + x947 + x958 + x968 + x969 + x978
      + x983 + x992 + x1002 + x1011 <= 1
 c43: x472 + x473 + x474 + x475 + x476 + x477 + x478 + x479 + x480 + x941
      + x942 + x943 + x944 + x948 + x959 + x970 + x971 + x979 + x984 + x993
      + x1003 + x1009 <= 1
Bounds
 0 <= x1 <= 1
 0 <= x2 <= 1
 0 <= x3 <= 1
 0 <= x4 <= 1
 0 <= x5 <= 1
 0 <= x6 <= 1
 0 <= x7 <= 1
 0 <= x8 <= 1
 0 <= x9 <= 1
 0 <= x10 <= 1
 0 <= x11 <= 1
 0 <= x12 <= 1
 0 <= x13 <= 1
 0 <= x14 <= 1
 0 <= x15 <= 1
 0 <= x16 <= 1
 0 <= x33 <= 1
 0 <= x34 <= 1
 0 <= x35 <= 1
 0 <= x36 <= 1
 0 <= x37 <= 1
 0 <= x38 <= 1
 0 <= x39 <= 1
 0 <= x40 <= 1
 0 <= x41 <= 1
 0 <= x42 <= 1
 0 <= x43 <= 1
 0 <= x44 <= 1
 0 <= x45 <= 1
 0 <= x46 <= 1
 0 <= x47 <= 1
 0 <= x48 <= 1
 0 <= x49 <= 1
 0 <= x50 <= 1
 0 <= x51 <= 1
 0 <= x52 <= 1
 0 <= x53 <= 1
 0 <= x54 <= 1
 0 <= x55 <= 1
 0 <= x56 <= 1
 0 <= x57 <= 1
 0 <= x58 <= 1
 0 <= x59 <= 1
 0 <= x60 <= 1
 0 <= x61 <= 1
 0 <= x62 <= 1
 0 <= x63 <= 1
 0 <= x64 <= 1
 0 <= x65 <= 1
 0 <= x66 <= 1
 0 <= x67 <= 1
 0 <= x68 <= 1
 0 <= x69 <= 1
 0 <= x70 <= 1
 0 <= x71 <= 1
 0 <= x72 <= 1
 0 <= x73 <= 1
 0 <= x74 <= 1
 0 <= x75 <= 1
 0 <= x76 <= 1
 0 <= x77 <= 1
 0 <= x78 <= 1
 0 <= x79 <= 1
 0 <= x80 <= 1
 0 <= x81 <= 1
 0 <= x82 <= 1
 0 <= x83 <= 1
 0 <= x84 <= 1
 0 <= x85 <= 1
 0 <= x86 <= 1
 0 <= x87 <= 1
 0 <= x88 <= 1
 0 <= x89 <= 1
 0 <= x90 <= 1
 0 <= x91 <= 1
 0 <= x92 <= 1
 0 <= x93 <= 1
 0 <= x94 <= 1
 0 <= x95 <= 1
 0 <= x96 <= 1
 0 <= x97 <= 1
 0 <= x98 <= 1
 0 <= x99 <= 1
 0 <= x100 <= 1
 0 <= x101 <= 1
 0 <= x102 <= 1
 0 <= x103 <= 1
 0 <= x104 <= 1
 0 <= x105 <= 1
 0 <= x106 <= 1
 0 <= x107 <= 1
 0 <= x108 <= 1
 0 <= x109 <= 1
 0 <= x110 <= 1
 0 <= x111 <= 1
 0 <= x112 <= 1
 0 <= x113 <= 1
 0 <= x114 <= 1
 0 <= x115 <= 1
 0 <= x116 <= 1
 0 <= x117 <= 1
 0 <= x118 <= 1
 0 <= x119 <= 1
 0 <= x120 <= 1
 0 <= x121 <= 1
 0 <= x122 <= 1
 0 <= x123 <= 1
 0 <= x124 <= 1
 0 <= x125 <= 1
 0 <= x126 <= 1
 0 <= x127 <= 1
 0 <= x128 <= 1
 0 <= x129 <= 1
 0 <= x130 <= 1
 0 <= x131 <= 1
 0 <= x132 <= 1
 0 <= x133 <= 1
 0 <= x134 <= 1
 0 <= x135 <= 1
 0 <= x136 <= 1
 0 <= x137 <= 1
 0 <= x138 <= 1
 0 <= x139 <= 1
 0 <= x140 <= 1
 0 <= x141 <= 1
 0 <= x142 <= 1
 0 <= x143 <= 1
 0 <= x144 <= 1
 0 <= x145 <= 1
 0 <= x146 <= 1
 0 <= x147 <= 1
 0 <= x148 <= 1
 0 <= x149 <= 1
 0 <= x150 <= 1
 0 <= x151 <= 1
 0 <= x152 <= 1
 0 <= x153 <= 1
 0 <= x154 <= 1
 0 <= x155 <= 1
 0 <= x156 <= 1
 0 <= x157 <= 1
 0 <= x158 <= 1
 0 <= x159 <= 1
 0 <= x160 <= 1
 0 <= x161 <= 1
 0 <= x162 <= 1
 0 <= x163 <= 1
 0 <= x164 <= 1
 0 <= x165 <= 1
 0 <= x166 <= 1
 0 <= x167 <= 1
 0 <= x168 <= 1
 0 <= x169 <= 1
 0 <= x170 <= 1
 0 <= x171 <= 1
 0 <= x172 <= 1
 0 <= x173 <= 1
 0 <= x174 <= 1
 0 <= x175 <= 1
 0 <= x176 <= 1
 0 <= x177 <= 1
 0 <= x178 <= 1
 0 <= x179 <= 1
 0 <= x180 <= 1
 0 <= x181 <= 1
 0 <= x182 <= 1
 0 <= x183 <= 1
 0 <= x184 <= 1
 0 <= x185 <= 1
 0 <= x186 <= 1
 0 <= x187 <= 1
 0 <= x188 <= 1
 0 <= x189 <= 1
 0 <= x190 <= 1
 0 <= x191 <= 1
 0 <= x192 <= 1
 0 <= x193 <= 1
 0 <= x194 <= 1
 0 <= x195 <= 1
 0 <= x196 <= 1
 0 <= x197 <= 1
 0 <= x198 <= 1
 0 <= x199 <= 1
 0 <= x200 <= 1
 0 <= x201 <= 1
 0 <= x202 <= 1
 0 <= x203 <= 1
 0 <= x204 <= 1
 0 <= x205 <= 1
 0 <= x206 <= 1
 0 <= x207 <= 1
 0 <= x208 <= 1
 0 <= x209 <= 1
 0 <= x210 <= 1
 0 <= x211 <= 1
 0 <= x212 <= 1
 0 <= x213 <= 1
 0 <= x214 <= 1
 0 <= x215 <= 1
 0 <= x216 <= 1
 0 <= x217 <= 1
 0 <= x218 <= 1
 0 <= x219 <= 1
 0 <= x220 <= 1
 0 <= x221 <= 1
 0 <= x222 <= 1
 0 <= x223 <= 1
 0 <= x224 <= 1
 0 <= x225 <= 1
 0 <= x226 <= 1
 0 <= x227 <= 1
 0 <= x228 <= 1
 0 <= x229 <= 1
 0 <= x230 <= 1
 0 <= x231 <= 1
 0 <= x232 <= 1
 0 <= x233 <= 1
 0 <= x234 <= 1
 0 <= x235 <= 1
 0 <= x236 <= 1
 0 <= x237 <= 1
 0 <= x238 <= 1
 0 <= x239 <= 1
 0 <= x240 <= 1
 0 <= x241 <= 1
 0 <= x242 <= 1
 0 <= x243 <= 1
 0 <= x244 <= 1
 0 <= x245 <= 1
 0 <= x246 <= 1
 0 <= x247 <= 1
 0 <= x248 <= 1
 0 <= x249 <= 1
 0 <= x250 <= 1
 0 <= x251 <= 1
 0 <= x252 <= 1
 0 <= x253 <= 1
 0 <= x254 <= 1
 0 <= x255 <= 1
 0 <= x256 <= 1
 0 <= x257 <= 1
 0 <= x258 <= 1
 0 <= x259 <= 1
 0 <= x260 <= 1
 0 <= x261 <= 1
 0 <= x262 <= 1
 0 <= x263 <= 1
 0 <= x264 <= 1
 0 <= x265 <= 1
 0 <= x266 <= 1
 0 <= x267 <= 1
 0 <= x268 <= 1
 0 <= x269 <= 1
 0 <= x270 <= 1
 0 <= x271 <= 1
 0 <= x272 <= 1
 0 <= x273 <= 1
 0 <= x274 <= 1
 0 <= x275 <= 1
 0 <= x276 <= 1
 0 <= x277 <= 1
 0 <= x278 <= 1
 0 <= x279 <= 1
 0 <= x280 <= 1
 0 <= x281 <= 1
 0 <= x282 <= 1
 0 <= x283 <= 1
 0 <= x284 <= 1
 0 <= x285 <= 1
 0 <= x286 <= 1
 0 <= x287 <= 1
 0 <= x288 <= 1
 0 <= x289 <= 1
 0 <= x290 <= 1
 0 <= x291 <= 1
 0 <= x292 <= 1
 0 <= x293 <= 1
 0 <= x294 <= 1
 0 <= x295 <= 1
 0 <= x296 <= 1
 0 <= x297 <= 1
 0 <= x298 <= 1
 0 <= x299 <= 1
 0 <= x300 <= 1
 0 <= x301 <= 1
 0 <= x302 <= 1
 0 <= x303 <= 1
 0 <= x304 <= 1
 0 <= x305 <= 1
 0 <= x306 <= 1
 0 <= x307 <= 1
 0 <= x308 <= 1
 0 <= x309 <= 1
 0 <= x310 <= 1
 0 <= x311 <= 1
 0 <= x312 <= 1
 0 <= x313 <= 1
 0 <= x314 <= 1
 0 <= x315 <= 1
 0 <= x316 <= 1
 0 <= x317 <= 1
 0 <= x318 <= 1
 0 <= x319 <= 1
 0 <= x320 <= 1
 0 <= x321 <= 1
 0 <= x322 <= 1
 0 <= x323 <= 1
 0 <= x324 <= 1
 0 <= x325 <= 1
 0 <= x326 <= 1
 0 <= x327 <= 1
 0 <= x328 <= 1
 0 <= x329 <= 1
 0 <= x330 <= 1
 0 <= x331 <= 1
 0 <= x332 <= 1
 0 <= x333 <= 1
 0 <= x334 <= 1
 0 <= x335 <= 1
 0 <= x336 <= 1
 0 <= x337 <= 1
 0 <= x338 <= 1
 0 <= x339 <= 1
 0 <= x340 <= 1
 0 <= x341 <= 1
 0 <= x342 <= 1
 0 <= x343 <= 1
 0 <= x344 <= 1
 0 <= x345 <= 1
 0 <= x346 <= 1
 0 <= x347 <= 1
 0 <= x348 <= 1
 0 <= x349 <= 1
 0 <= x350 <= 1
 0 <= x351 <= 1
 0 <= x352 <= 1
 0 <= x353 <= 1
 0 <= x354 <= 1
 0 <= x355 <= 1
 0 <= x356 <= 1
 0 <= x357 <= 1
 0 <= x358 <= 1
 0 <= x359 <= 1
 0 <= x360 <= 1
 0 <= x361 <= 1
 0 <= x362 <= 1
 0 <= x363 <= 1
 0 <= x364 <= 1
 0 <= x365 <= 1
 0 <= x366 <= 1
 0 <= x367 <= 1
 0 <= x368 <= 1
 0 <= x369 <= 1
 0 <= x370 <= 1
 0 <= x371 <= 1
 0 <= x372 <= 1
 0 <= x373 <= 1
 0 <= x374 <= 1
 0 <= x375 <= 1
 0 <= x376 <= 1
 0 <= x377 <= 1
 0 <= x378 <= 1
 0 <= x379 <= 1
 0 <= x380 <= 1
 0 <= x381 <= 1
 0 <= x382 <= 1
 0 <= x383 <= 1
 0 <= x384 <= 1
 0 <= x385 <= 1
 0 <= x386 <= 1
 0 <= x387 <= 1
 0 <= x388 <= 1
 0 <= x389 <= 1
 0 <= x390 <= 1
 0 <= x391 <= 1
 0 <= x392 <= 1
 0 <= x393 <= 1
 0 <= x394 <= 1
 0 <= x395 <= 1
 0 <= x396 <= 1
 0 <= x397 <= 1
 0 <= x398 <= 1
 0 <= x399 <= 1
 0 <= x400 <= 1
 0 <= x401 <= 1
 0 <= x402 <= 1
 0 <= x403 <= 1
 0 <= x404 <= 1
 0 <= x405 <= 1
 0 <= x406 <= 1
 0 <= x407 <= 1
 0 <= x408 <= 1
 0 <= x409 <= 1
 0 <= x410 <= 1
 0 <= x411 <= 1
 0 <= x412 <= 1
 0 <= x413 <= 1
 0 <= x414 <= 1
 0 <= x415 <= 1
 0 <= x416 <= 1
 0 <= x417 <= 1
 0 <= x418 <= 1
 0 <= x419 <= 1
 0 <= x420 <= 1
 0 <= x421 <= 1
 0 <= x422 <= 1
 0 <= x423 <= 1
 0 <= x424 <= 1
 0 <= x425 <= 1
 0 <= x426 <= 1
 0 <= x427 <= 1
 0 <= x428 <= 1
 0 <= x429 <= 1
 0 <= x430 <= 1
 0 <= x431 <= 1
 0 <= x432 <= 1
 0 <= x433 <= 1
 0 <= x434 <= 1
 0 <= x435 <= 1
 0 <= x436 <= 1
 0 <= x437 <= 1
 0 <= x438 <= 1
 0 <= x439 <= 1
 0 <= x440 <= 1
 0 <= x441 <= 1
 0 <= x442 <= 1
 0 <= x443 <= 1
 0 <= x444 <= 1
 0 <= x445 <= 1
 0 <= x446 <= 1
 0 <= x447 <= 1
 0 <= x448 <= 1
 0 <= x449 <= 1
 0 <= x450 <= 1
 0 <= x451 <= 1
 0 <= x452 <= 1
 0 <= x453 <= 1
 0 <= x454 <= 1
 0 <= x455 <= 1
 0 <= x456 <= 1
 0 <= x457 <= 1
 0 <= x458 <= 1
 0 <= x459 <= 1
 0 <= x460 <= 1
 0 <= x461 <= 1
 0 <= x462 <= 1
 0 <= x463 <= 1
 0 <= x464 <= 1
 0 <= x465 <= 1
 0 <= x466 <= 1
 0 <= x467 <= 1
 0 <= x468 <= 1
 0 <= x469 <= 1
 0 <= x470 <= 1
 0 <= x471 <= 1
 0 <= x472 <= 1
 0 <= x473 <= 1
 0 <= x474 <= 1
 0 <= x475 <= 1
 0 <= x476 <= 1
 0 <= x477 <= 1
 0 <= x478 <= 1
 0 <= x479 <= 1
 0 <= x480 <= 1
 0 <= x929 <= 1
 0 <= x930 <= 1
 0 <= x931 <= 1
 0 <= x932 <= 1
 0 <= x933 <= 1
 0 <= x934 <= 1
 0 <= x935 <= 1
 0 <= x936 <= 1
 0 <= x937 <= 1
 0 <= x938 <= 1
 0 <= x939 <= 1
 0 <= x940 <= 1
 0 <= x941 <= 1
 0 <= x942 <= 1
 0 <= x943 <= 1
 0 <= x944 <= 1
 0 <= x945 <= 1
 0 <= x946 <= 1
 0 <= x947 <= 1
 0 <= x948 <= 1
 0 <= x953 <= 1
 0 <= x954 <= 1
 0 <= x955 <= 1
 0 <= x956 <= 1
 0 <= x957 <= 1
 0 <= x958 <= 1
 0 <= x959 <= 1
 0 <= x967 <= 1
 0 <= x968 <= 1
 0 <= x969 <= 1
 0 <= x970 <= 1
 0 <= x971 <= 1
 0 <= x977 <= 1
 0 <= x978 <= 1
 0 <= x979 <= 1
 0 <= x983 <= 1
 0 <= x984 <= 1
 0 <= x987 <= 1
 0 <= x988 <= 1
 0 <= x989 <= 1
 0 <= x990 <= 1
 0 <= x991 <= 1
 0 <= x992 <= 1
 0 <= x993 <= 1
 0 <= x1001 <= 1
 0 <= x1002 <= 1
 0 <= x1003 <= 1
 0 <= x1007 <= 1
 0 <= x1009 <= 1
 0 <= x1011 <= 1
 0 <= x1013 <= 1
Binaries
 x1  x2  x3  x4  x5  x6  x7  x8  x9  x10  x11  x12  x13  x14  x15  x16  x33 
 x34  x35  x36  x37  x38  x39  x40  x41  x42  x43  x44  x45  x46  x47  x48 
 x49  x50  x51  x52  x53  x54  x55  x56  x57  x58  x59  x60  x61  x62  x63 
 x64  x65  x66  x67  x68  x69  x70  x71  x72  x73  x74  x75  x76  x77  x78 
 x79  x80  x81  x82  x83  x84  x85  x86  x87  x88  x89  x90  x91  x92  x93 
 x94  x95  x96  x97  x98  x99  x100  x101  x102  x103  x104  x105  x106  x107 
 x108  x109  x110  x111  x112  x113  x114  x115  x116  x117  x118  x119  x120 
 x121  x122  x123  x124  x125  x126  x127  x128  x129  x130  x131  x132  x133 
 x134  x135  x136  x137  x138  x139  x140  x141  x142  x143  x144  x145  x146 
 x147  x148  x149  x150  x151  x152  x153  x154  x155  x156  x157  x158  x159 
 x160  x161  x162  x163  x164  x165  x166  x167  x168  x169  x170  x171  x172 
 x173  x174  x175  x176  x177  x178  x179  x180  x181  x182  x183  x184  x185 
 x186  x187  x188  x189  x190  x191  x192  x193  x194  x195  x196  x197  x198 
 x199  x200  x201  x202  x203  x204  x205  x206  x207  x208  x209  x210  x211 
 x212  x213  x214  x215  x216  x217  x218  x219  x220  x221  x222  x223  x224 
 x225  x226  x227  x228  x229  x230  x231  x232  x233  x234  x235  x236  x237 
 x238  x239  x240  x241  x242  x243  x244  x245  x246  x247  x248  x249  x250 
 x251  x252  x253  x254  x255  x256  x257  x258  x259  x260  x261  x262  x263 
 x264  x265  x266  x267  x268  x269  x270  x271  x272  x273  x274  x275  x276 
 x277  x278  x279  x280  x281  x282  x283  x284  x285  x286  x287  x288  x289 
 x290  x291  x292  x293  x294  x295  x296  x297  x298  x299  x300  x301  x302 
 x303  x304  x305  x306  x307  x308  x309  x310  x311  x312  x313  x314  x315 
 x316  x317  x318  x319  x320  x321  x322  x323  x324  x325  x326  x327  x328 
 x329  x330  x331  x332  x333  x334  x335  x336  x337  x338  x339  x340  x341 
 x342  x343  x344  x345  x346  x347  x348  x349  x350  x351  x352  x353  x354 
 x355  x356  x357  x358  x359  x360  x361  x362  x363  x364  x365  x366  x367 
 x368  x369  x370  x371  x372  x373  x374  x375  x376  x377  x378  x379  x380 
 x381  x382  x383  x384  x385  x386  x387  x388  x389  x390  x391  x392  x393 
 x394  x395  x396  x397  x398  x399  x400  x401  x402  x403  x404  x405  x406 
 x407  x408  x409  x410  x411  x412  x413  x414  x415  x416  x417  x418  x419 
 x420  x421  x422  x423  x424  x425  x426  x427  x428  x429  x430  x431  x432 
 x433  x434  x435  x436  x437  x438  x439  x440  x441  x442  x443  x444  x445 
 x446  x447  x448  x449  x450  x451  x452  x453  x454  x455  x456  x457  x458 
 x459  x460  x461  x462  x463  x464  x465  x466  x467  x468  x469  x470  x471 
 x472  x473  x474  x475  x476  x477  x478  x479  x480  x929  x930  x931  x932 
 x933  x934  x935  x936  x937  x938  x939  x940  x941  x942  x943  x944  x945 
 x946  x947  x948  x953  x954  x955  x956  x957  x958  x959  x967  x968  x969 
 x970  x971  x977  x978  x979  x983  x984  x987  x988  x989  x990  x991  x992 
 x993  x1001  x1002  x1003  x1007  x1009  x1011  x1013 
End
